projet_m2_wvcp/projet_m2_wvcp/original_wvcp_dzn/r19.clq.dzn
cliques=[{8,5,10,0,1,9,4,2,6,3,7},{112,75,90,1,12,143,58,175,123,48,164,152,36},{8,5,10,0,1,9,4,2,6,3,7},{8,5,10,0,1,9,4,2,6,3,7},{156,146,59,4,50,126,137,85,71,28,15,104,40},{42,51,179,93,5,139,106,128,147,78,61,30},{52,107,86,158,129,79,148,180,17,6,94,43},{8,5,10,0,1,9,4,2,6,3,7},{118,141,161,8,95,55,21,109,73,150,171,65,182},{8,5,10,0,1,9,4,2,6,3,7},{35,98,46,10,163,121,23,133,82,68,184},{13,12,20,21,19,14,23,17,15,11,16,22,18},{112,75,90,1,12,143,58,175,123,48,164,152,36},{13,12,20,21,19,14,23,17,15,11,16,22,18},{153,144,165,101,113,124,25,177,134,14,91,38,76},{156,146,59,4,50,126,137,85,71,28,15,104,40},{13,12,20,21,19,14,23,17,15,11,16,22,18},{52,107,86,158,129,79,148,180,17,6,94,43},{13,12,20,21,19,14,23,17,15,11,16,22,18},{31,87,181,140,63,130,19,108,170,44,149,160},{13,12,20,21,19,14,23,17,15,11,16,22,18},{118,141,161,8,95,55,21,109,73,150,171,65,182},{131,96,88,172,9,74,33,81,66,162,119,22},{35,98,46,10,163,121,23,133,82,68,184},{31,24,35,29,27,25,32,33,26,28,30,34},{153,144,165,101,113,124,25,177,134,14,91,38,76},{31,24,35,29,27,25,32,33,26,28,30,34},{31,24,35,29,27,25,32,33,26,28,30,34},{31,24,35,29,27,25,32,33,26,28,30,34},{31,24,35,29,27,25,32,33,26,28,30,34},{42,51,179,93,5,139,106,128,147,78,61,30},{31,24,35,29,27,25,32,33,26,28,30,34},{31,24,35,29,27,25,32,33,26,28,30,34},{31,24,35,29,27,25,32,33,26,28,30,34},{31,24,35,29,27,25,32,33,26,28,30,34},{31,24,35,29,27,25,32,33,26,28,30,34},{112,75,90,1,12,143,58,175,123,48,164,152,36},{45,42,41,37,46,39,43,38,44,36,40},{153,144,165,101,113,124,25,177,134,14,91,38,76},{45,42,41,37,46,39,43,38,44,36,40},{156,146,59,4,50,126,137,85,71,28,15,104,40},{45,42,41,37,46,39,43,38,44,36,40},{42,51,179,93,5,139,106,128,147,78,61,30},{52,107,86,158,129,79,148,180,17,6,94,43},{31,87,181,140,63,130,19,108,170,44,149,160},{45,42,41,37,46,39,43,38,44,36,40},{35,98,46,10,163,121,23,133,82,68,184},{51,49,52,53,50,55,56,48,54,47},{112,75,90,1,12,143,58,175,123,48,164,152,36},{51,49,52,53,50,55,56,48,54,47},{156,146,59,4,50,126,137,85,71,28,15,104,40},{42,51,179,93,5,139,106,128,147,78,61,30},{52,107,86,158,129,79,148,180,17,6,94,43},{51,49,52,53,50,55,56,48,54,47},{51,49,52,53,50,55,56,48,54,47},{118,141,161,8,95,55,21,109,73,150,171,65,182},{51,49,52,53,50,55,56,48,54,47},{64,59,63,62,58,68,57,67,60,61,66,65},{112,75,90,1,12,143,58,175,123,48,164,152,36},{156,146,59,4,50,126,137,85,71,28,15,104,40},{64,59,63,62,58,68,57,67,60,61,66,65},{42,51,179,93,5,139,106,128,147,78,61,30},{64,59,63,62,58,68,57,67,60,61,66,65},{31,87,181,140,63,130,19,108,170,44,149,160},{64,59,63,62,58,68,57,67,60,61,66,65},{118,141,161,8,95,55,21,109,73,150,171,65,182},{131,96,88,172,9,74,33,81,66,162,119,22},{64,59,63,62,58,68,57,67,60,61,66,65},{35,98,46,10,163,121,23,133,82,68,184},{0,174,142,57,111,99,122,47,11,69},{70,2,114,166,26,102,145},{156,146,59,4,50,126,137,85,71,28,15,104,40},{45,117,64,20,32,54,72},{118,141,161,8,95,55,21,109,73,150,171,65,182},{131,96,88,172,9,74,33,81,66,162,119,22},{112,75,90,1,12,143,58,175,123,48,164,152,36},{153,144,165,101,113,124,25,177,134,14,91,38,76},{27,103,178,84,125,154,3,167,135,77},{42,51,179,93,5,139,106,128,147,78,61,30},{52,107,86,158,129,79,148,180,17,6,94,43},{53,159,62,169,116,7,18,80},{131,96,88,172,9,74,33,81,66,162,119,22},{35,98,46,10,163,121,23,133,82,68,184},{87,88,83,86,85,84,89},{27,103,178,84,125,154,3,167,135,77},{156,146,59,4,50,126,137,85,71,28,15,104,40},{52,107,86,158,129,79,148,180,17,6,94,43},{31,87,181,140,63,130,19,108,170,44,149,160},{131,96,88,172,9,74,33,81,66,162,119,22},{151,173,97,56,183,132,67,110,120,34,89},{112,75,90,1,12,143,58,175,123,48,164,152,36},{153,144,165,101,113,124,25,177,134,14,91,38,76},{96,98,95,90,93,97,91,94,92},{42,51,179,93,5,139,106,128,147,78,61,30},{52,107,86,158,129,79,148,180,17,6,94,43},{118,141,161,8,95,55,21,109,73,150,171,65,182},{131,96,88,172,9,74,33,81,66,162,119,22},{96,98,95,90,93,97,91,94,92},{35,98,46,10,163,121,23,133,82,68,184},{107,103,101,105,106,109,108,110,102,99,100,104},{107,103,101,105,106,109,108,110,102,99,100,104},{153,144,165,101,113,124,25,177,134,14,91,38,76},{107,103,101,105,106,109,108,110,102,99,100,104},{107,103,101,105,106,109,108,110,102,99,100,104},{156,146,59,4,50,126,137,85,71,28,15,104,40},{107,103,101,105,106,109,108,110,102,99,100,104},{42,51,179,93,5,139,106,128,147,78,61,30},{52,107,86,158,129,79,148,180,17,6,94,43},{31,87,181,140,63,130,19,108,170,44,149,160},{118,141,161,8,95,55,21,109,73,150,171,65,182},{107,103,101,105,106,109,108,110,102,99,100,104},{118,117,112,113,121,114,116,111,120,119,115},{112,75,90,1,12,143,58,175,123,48,164,152,36},{153,144,165,101,113,124,25,177,134,14,91,38,76},{118,117,112,113,121,114,116,111,120,119,115},{118,117,112,113,121,114,116,111,120,119,115},{118,117,112,113,121,114,116,111,120,119,115},{118,117,112,113,121,114,116,111,120,119,115},{118,141,161,8,95,55,21,109,73,150,171,65,182},{131,96,88,172,9,74,33,81,66,162,119,22},{118,117,112,113,121,114,116,111,120,119,115},{35,98,46,10,163,121,23,133,82,68,184},{131,129,124,126,130,133,128,125,123,132,122,127},{112,75,90,1,12,143,58,175,123,48,164,152,36},{153,144,165,101,113,124,25,177,134,14,91,38,76},{131,129,124,126,130,133,128,125,123,132,122,127},{156,146,59,4,50,126,137,85,71,28,15,104,40},{131,129,124,126,130,133,128,125,123,132,122,127},{42,51,179,93,5,139,106,128,147,78,61,30},{52,107,86,158,129,79,148,180,17,6,94,43},{31,87,181,140,63,130,19,108,170,44,149,160},{131,96,88,172,9,74,33,81,66,162,119,22},{131,129,124,126,130,133,128,125,123,132,122,127},{35,98,46,10,163,121,23,133,82,68,184},{153,144,165,101,113,124,25,177,134,14,91,38,76},{141,136,140,139,138,137,134,135},{141,136,140,139,138,137,134,135},{156,146,59,4,50,126,137,85,71,28,15,104,40},{141,136,140,139,138,137,134,135},{42,51,179,93,5,139,106,128,147,78,61,30},{31,87,181,140,63,130,19,108,170,44,149,160},{118,141,161,8,95,55,21,109,73,150,171,65,182},{144,146,151,148,143,147,142,150,149,145},{112,75,90,1,12,143,58,175,123,48,164,152,36},{153,144,165,101,113,124,25,177,134,14,91,38,76},{144,146,151,148,143,147,142,150,149,145},{156,146,59,4,50,126,137,85,71,28,15,104,40},{42,51,179,93,5,139,106,128,147,78,61,30},{52,107,86,158,129,79,148,180,17,6,94,43},{31,87,181,140,63,130,19,108,170,44,149,160},{118,141,161,8,95,55,21,109,73,150,171,65,182},{144,146,151,148,143,147,142,150,149,145},{112,75,90,1,12,143,58,175,123,48,164,152,36},{153,144,165,101,113,124,25,177,134,14,91,38,76},{153,156,161,159,163,158,157,154,152,162,155,160},{153,156,161,159,163,158,157,154,152,162,155,160},{156,146,59,4,50,126,137,85,71,28,15,104,40},{153,156,161,159,163,158,157,154,152,162,155,160},{52,107,86,158,129,79,148,180,17,6,94,43},{153,156,161,159,163,158,157,154,152,162,155,160},{31,87,181,140,63,130,19,108,170,44,149,160},{118,141,161,8,95,55,21,109,73,150,171,65,182},{153,156,161,159,163,158,157,154,152,162,155,160},{35,98,46,10,163,121,23,133,82,68,184},{112,75,90,1,12,143,58,175,123,48,164,152,36},{153,144,165,101,113,124,25,177,134,14,91,38,76},{172,165,173,169,166,170,164,167,168,171},{172,165,173,169,166,170,164,167,168,171},{172,165,173,169,166,170,164,167,168,171},{172,165,173,169,166,170,164,167,168,171},{31,87,181,140,63,130,19,108,170,44,149,160},{118,141,161,8,95,55,21,109,73,150,171,65,182},{131,96,88,172,9,74,33,81,66,162,119,22},{172,165,173,169,166,170,164,167,168,171},{179,181,177,174,183,180,178,175,184,182,176},{112,75,90,1,12,143,58,175,123,48,164,152,36},{179,181,177,174,183,180,178,175,184,182,176},{153,144,165,101,113,124,25,177,134,14,91,38,76},{179,181,177,174,183,180,178,175,184,182,176},{42,51,179,93,5,139,106,128,147,78,61,30},{52,107,86,158,129,79,148,180,17,6,94,43},{31,87,181,140,63,130,19,108,170,44,149,160},{118,141,161,8,95,55,21,109,73,150,171,65,182},{179,181,177,174,183,180,178,175,184,182,176},{35,98,46,10,163,121,23,133,82,68,184}];
nr_cliques=185;
