projet_m2_wvcp/projet_m2_wvcp/original_wvcp_dzn/r19.dzn
name="r19";
nr_vertices=185;
nr_edges=1803;
neighborhoods=[{1,2,3,4,5,6,7,8,9,10,11,47,57,69,99,111,122,142,174},{0,2,3,4,5,6,7,8,9,10,12,36,48,58,75,90,112,123,143,152,164,175},{0,1,3,4,5,6,7,8,9,10,26,70,102,114,145,166},{0,1,2,4,5,6,7,8,9,10,27,77,84,103,125,135,154,167,178},{0,1,2,3,5,6,7,8,9,10,15,28,40,50,59,71,85,104,126,137,146,156},{0,1,2,3,4,6,7,8,9,10,30,42,51,61,78,93,106,128,139,147,179},{0,1,2,3,4,5,7,8,9,10,17,43,52,79,86,94,107,129,148,158,180},{0,1,2,3,4,5,6,8,9,10,18,53,62,80,116,159,169},{0,1,2,3,4,5,6,7,9,10,21,55,65,73,95,109,118,141,150,161,171,182},{0,1,2,3,4,5,6,7,8,10,22,33,66,74,81,88,96,119,131,162,172},{0,1,2,3,4,5,6,7,8,9,23,35,46,68,82,98,121,133,163,184},{0,12,13,14,15,16,17,18,19,20,21,22,23,47,57,69,99,111,122,142,174},{1,11,13,14,15,16,17,18,19,20,21,22,23,36,48,58,75,90,112,123,143,152,164,175},{11,12,14,15,16,17,18,19,20,21,22,23,24,37,83,100,176},{11,12,13,15,16,17,18,19,20,21,22,23,25,38,76,91,101,113,124,134,144,153,165,177},{4,11,12,13,14,16,17,18,19,20,21,22,23,28,40,50,59,71,85,104,126,137,146,156},{11,12,13,14,15,17,18,19,20,21,22,23,29,41,60,105,127,138,157,168},{6,11,12,13,14,15,16,18,19,20,21,22,23,43,52,79,86,94,107,129,148,158,180},{7,11,12,13,14,15,16,17,19,20,21,22,23,53,62,80,116,159,169},{11,12,13,14,15,16,17,18,20,21,22,23,31,44,63,87,108,130,140,149,160,170,181},{11,12,13,14,15,16,17,18,19,21,22,23,32,45,54,64,72,117},{8,11,12,13,14,15,16,17,18,19,20,22,23,55,65,73,95,109,118,141,150,161,171,182},{9,11,12,13,14,15,16,17,18,19,20,21,23,33,66,74,81,88,96,119,131,162,172},{10,11,12,13,14,15,16,17,18,19,20,21,22,35,46,68,82,98,121,133,163,184},{13,25,26,27,28,29,30,31,32,33,34,35,37,83,100,176},{14,24,26,27,28,29,30,31,32,33,34,35,38,76,91,101,113,124,134,144,153,165,177},{2,24,25,27,28,29,30,31,32,33,34,35,70,102,114,145,166},{3,24,25,26,28,29,30,31,32,33,34,35,77,84,103,125,135,154,167,178},{4,15,24,25,26,27,29,30,31,32,33,34,35,40,50,59,71,85,104,126,137,146,156},{16,24,25,26,27,28,30,31,32,33,34,35,41,60,105,127,138,157,168},{5,24,25,26,27,28,29,31,32,33,34,35,42,51,61,78,93,106,128,139,147,179},{19,24,25,26,27,28,29,30,32,33,34,35,44,63,87,108,130,140,149,160,170,181},{20,24,25,26,27,28,29,30,31,33,34,35,45,54,64,72,117},{9,22,24,25,26,27,28,29,30,31,32,34,35,66,74,81,88,96,119,131,162,172},{24,25,26,27,28,29,30,31,32,33,35,56,67,89,97,110,120,132,151,173,183},{10,23,24,25,26,27,28,29,30,31,32,33,34,46,68,82,98,121,133,163,184},{1,12,37,38,39,40,41,42,43,44,45,46,48,58,75,90,112,123,143,152,164,175},{13,24,36,38,39,40,41,42,43,44,45,46,83,100,176},{14,25,36,37,39,40,41,42,43,44,45,46,76,91,101,113,124,134,144,153,165,177},{36,37,38,40,41,42,43,44,45,46,49,92,115,136,155},{4,15,28,36,37,38,39,41,42,43,44,45,46,50,59,71,85,104,126,137,146,156},{16,29,36,37,38,39,40,42,43,44,45,46,60,105,127,138,157,168},{5,30,36,37,38,39,40,41,43,44,45,46,51,61,78,93,106,128,139,147,179},{6,17,36,37,38,39,40,41,42,44,45,46,52,79,86,94,107,129,148,158,180},{19,31,36,37,38,39,40,41,42,43,45,46,63,87,108,130,140,149,160,170,181},{20,32,36,37,38,39,40,41,42,43,44,46,54,64,72,117},{10,23,35,36,37,38,39,40,41,42,43,44,45,68,82,98,121,133,163,184},{0,11,48,49,50,51,52,53,54,55,56,57,69,99,111,122,142,174},{1,12,36,47,49,50,51,52,53,54,55,56,58,75,90,112,123,143,152,164,175},{39,47,48,50,51,52,53,54,55,56,92,115,136,155},{4,15,28,40,47,48,49,51,52,53,54,55,56,59,71,85,104,126,137,146,156},{5,30,42,47,48,49,50,52,53,54,55,56,61,78,93,106,128,139,147,179},{6,17,43,47,48,49,50,51,53,54,55,56,79,86,94,107,129,148,158,180},{7,18,47,48,49,50,51,52,54,55,56,62,80,116,159,169},{20,32,45,47,48,49,50,51,52,53,55,56,64,72,117},{8,21,47,48,49,50,51,52,53,54,56,65,73,95,109,118,141,150,161,171,182},{34,47,48,49,50,51,52,53,54,55,67,89,97,110,120,132,151,173,183},{0,11,47,58,59,60,61,62,63,64,65,66,67,68,69,99,111,122,142,174},{1,12,36,48,57,59,60,61,62,63,64,65,66,67,68,75,90,112,123,143,152,164,175},{4,15,28,40,50,57,58,60,61,62,63,64,65,66,67,68,71,85,104,126,137,146,156},{16,29,41,57,58,59,61,62,63,64,65,66,67,68,105,127,138,157,168},{5,30,42,51,57,58,59,60,62,63,64,65,66,67,68,78,93,106,128,139,147,179},{7,18,53,57,58,59,60,61,63,64,65,66,67,68,80,116,159,169},{19,31,44,57,58,59,60,61,62,64,65,66,67,68,87,108,130,140,149,160,170,181},{20,32,45,54,57,58,59,60,61,62,63,65,66,67,68,72,117},{8,21,55,57,58,59,60,61,62,63,64,66,67,68,73,95,109,118,141,150,161,171,182},{9,22,33,57,58,59,60,61,62,63,64,65,67,68,74,81,88,96,119,131,162,172},{34,56,57,58,59,60,61,62,63,64,65,66,68,89,97,110,120,132,151,173,183},{10,23,35,46,57,58,59,60,61,62,63,64,65,66,67,82,98,121,133,163,184},{0,11,47,57,70,71,72,73,74,99,111,122,142,174},{2,26,69,71,72,73,74,102,114,145,166},{4,15,28,40,50,59,69,70,72,73,74,85,104,126,137,146,156},{20,32,45,54,64,69,70,71,73,74,117},{8,21,55,65,69,70,71,72,74,95,109,118,141,150,161,171,182},{9,22,33,66,69,70,71,72,73,81,88,96,119,131,162,172},{1,12,36,48,58,76,77,78,79,80,81,82,90,112,123,143,152,164,175},{14,25,38,75,77,78,79,80,81,82,91,101,113,124,134,144,153,165,177},{3,27,75,76,78,79,80,81,82,84,103,125,135,154,167,178},{5,30,42,51,61,75,76,77,79,80,81,82,93,106,128,139,147,179},{6,17,43,52,75,76,77,78,80,81,82,86,94,107,129,148,158,180},{7,18,53,62,75,76,77,78,79,81,82,116,159,169},{9,22,33,66,74,75,76,77,78,79,80,82,88,96,119,131,162,172},{10,23,35,46,68,75,76,77,78,79,80,81,98,121,133,163,184},{13,24,37,84,85,86,87,88,89,100,176},{3,27,77,83,85,86,87,88,89,103,125,135,154,167,178},{4,15,28,40,50,59,71,83,84,86,87,88,89,104,126,137,146,156},{6,17,43,52,79,83,84,85,87,88,89,94,107,129,148,158,180},{19,31,44,63,83,84,85,86,88,89,108,130,140,149,160,170,181},{9,22,33,66,74,81,83,84,85,86,87,89,96,119,131,162,172},{34,56,67,83,84,85,86,87,88,97,110,120,132,151,173,183},{1,12,36,48,58,75,91,92,93,94,95,96,97,98,112,123,143,152,164,175},{14,25,38,76,90,92,93,94,95,96,97,98,101,113,124,134,144,153,165,177},{39,49,90,91,93,94,95,96,97,98,115,136,155},{5,30,42,51,61,78,90,91,92,94,95,96,97,98,106,128,139,147,179},{6,17,43,52,79,86,90,91,92,93,95,96,97,98,107,129,148,158,180},{8,21,55,65,73,90,91,92,93,94,96,97,98,109,118,141,150,161,171,182},{9,22,33,66,74,81,88,90,91,92,93,94,95,97,98,119,131,162,172},{34,56,67,89,90,91,92,93,94,95,96,98,110,120,132,151,173,183},{10,23,35,46,68,82,90,91,92,93,94,95,96,97,121,133,163,184},{0,11,47,57,69,100,101,102,103,104,105,106,107,108,109,110,111,122,142,174},{13,24,37,83,99,101,102,103,104,105,106,107,108,109,110,176},{14,25,38,76,91,99,100,102,103,104,105,106,107,108,109,110,113,124,134,144,153,165,177},{2,26,70,99,100,101,103,104,105,106,107,108,109,110,114,145,166},{3,27,77,84,99,100,101,102,104,105,106,107,108,109,110,125,135,154,167,178},{4,15,28,40,50,59,71,85,99,100,101,102,103,105,106,107,108,109,110,126,137,146,156},{16,29,41,60,99,100,101,102,103,104,106,107,108,109,110,127,138,157,168},{5,30,42,51,61,78,93,99,100,101,102,103,104,105,107,108,109,110,128,139,147,179},{6,17,43,52,79,86,94,99,100,101,102,103,104,105,106,108,109,110,129,148,158,180},{19,31,44,63,87,99,100,101,102,103,104,105,106,107,109,110,130,140,149,160,170,181},{8,21,55,65,73,95,99,100,101,102,103,104,105,106,107,108,110,118,141,150,161,171,182},{34,56,67,89,97,99,100,101,102,103,104,105,106,107,108,109,120,132,151,173,183},{0,11,47,57,69,99,112,113,114,115,116,117,118,119,120,121,122,142,174},{1,12,36,48,58,75,90,111,113,114,115,116,117,118,119,120,121,123,143,152,164,175},{14,25,38,76,91,101,111,112,114,115,116,117,118,119,120,121,124,134,144,153,165,177},{2,26,70,102,111,112,113,115,116,117,118,119,120,121,145,166},{39,49,92,111,112,113,114,116,117,118,119,120,121,136,155},{7,18,53,62,80,111,112,113,114,115,117,118,119,120,121,159,169},{20,32,45,54,64,72,111,112,113,114,115,116,118,119,120,121},{8,21,55,65,73,95,109,111,112,113,114,115,116,117,119,120,121,141,150,161,171,182},{9,22,33,66,74,81,88,96,111,112,113,114,115,116,117,118,120,121,131,162,172},{34,56,67,89,97,110,111,112,113,114,115,116,117,118,119,121,132,151,173,183},{10,23,35,46,68,82,98,111,112,113,114,115,116,117,118,119,120,133,163,184},{0,11,47,57,69,99,111,123,124,125,126,127,128,129,130,131,132,133,142,174},{1,12,36,48,58,75,90,112,122,124,125,126,127,128,129,130,131,132,133,143,152,164,175},{14,25,38,76,91,101,113,122,123,125,126,127,128,129,130,131,132,133,134,144,153,165,177},{3,27,77,84,103,122,123,124,126,127,128,129,130,131,132,133,135,154,167,178},{4,15,28,40,50,59,71,85,104,122,123,124,125,127,128,129,130,131,132,133,137,146,156},{16,29,41,60,105,122,123,124,125,126,128,129,130,131,132,133,138,157,168},{5,30,42,51,61,78,93,106,122,123,124,125,126,127,129,130,131,132,133,139,147,179},{6,17,43,52,79,86,94,107,122,123,124,125,126,127,128,130,131,132,133,148,158,180},{19,31,44,63,87,108,122,123,124,125,126,127,128,129,131,132,133,140,149,160,170,181},{9,22,33,66,74,81,88,96,119,122,123,124,125,126,127,128,129,130,132,133,162,172},{34,56,67,89,97,110,120,122,123,124,125,126,127,128,129,130,131,133,151,173,183},{10,23,35,46,68,82,98,121,122,123,124,125,126,127,128,129,130,131,132,163,184},{14,25,38,76,91,101,113,124,135,136,137,138,139,140,141,144,153,165,177},{3,27,77,84,103,125,134,136,137,138,139,140,141,154,167,178},{39,49,92,115,134,135,137,138,139,140,141,155},{4,15,28,40,50,59,71,85,104,126,134,135,136,138,139,140,141,146,156},{16,29,41,60,105,127,134,135,136,137,139,140,141,157,168},{5,30,42,51,61,78,93,106,128,134,135,136,137,138,140,141,147,179},{19,31,44,63,87,108,130,134,135,136,137,138,139,141,149,160,170,181},{8,21,55,65,73,95,109,118,134,135,136,137,138,139,140,150,161,171,182},{0,11,47,57,69,99,111,122,143,144,145,146,147,148,149,150,151,174},{1,12,36,48,58,75,90,112,123,142,144,145,146,147,148,149,150,151,152,164,175},{14,25,38,76,91,101,113,124,134,142,143,145,146,147,148,149,150,151,153,165,177},{2,26,70,102,114,142,143,144,146,147,148,149,150,151,166},{4,15,28,40,50,59,71,85,104,126,137,142,143,144,145,147,148,149,150,151,156},{5,30,42,51,61,78,93,106,128,139,142,143,144,145,146,148,149,150,151,179},{6,17,43,52,79,86,94,107,129,142,143,144,145,146,147,149,150,151,158,180},{19,31,44,63,87,108,130,140,142,143,144,145,146,147,148,150,151,160,170,181},{8,21,55,65,73,95,109,118,141,142,143,144,145,146,147,148,149,151,161,171,182},{34,56,67,89,97,110,120,132,142,143,144,145,146,147,148,149,150,173,183},{1,12,36,48,58,75,90,112,123,143,153,154,155,156,157,158,159,160,161,162,163,164,175},{14,25,38,76,91,101,113,124,134,144,152,154,155,156,157,158,159,160,161,162,163,165,177},{3,27,77,84,103,125,135,152,153,155,156,157,158,159,160,161,162,163,167,178},{39,49,92,115,136,152,153,154,156,157,158,159,160,161,162,163},{4,15,28,40,50,59,71,85,104,126,137,146,152,153,154,155,157,158,159,160,161,162,163},{16,29,41,60,105,127,138,152,153,154,155,156,158,159,160,161,162,163,168},{6,17,43,52,79,86,94,107,129,148,152,153,154,155,156,157,159,160,161,162,163,180},{7,18,53,62,80,116,152,153,154,155,156,157,158,160,161,162,163,169},{19,31,44,63,87,108,130,140,149,152,153,154,155,156,157,158,159,161,162,163,170,181},{8,21,55,65,73,95,109,118,141,150,152,153,154,155,156,157,158,159,160,162,163,171,182},{9,22,33,66,74,81,88,96,119,131,152,153,154,155,156,157,158,159,160,161,163,172},{10,23,35,46,68,82,98,121,133,152,153,154,155,156,157,158,159,160,161,162,184},{1,12,36,48,58,75,90,112,123,143,152,165,166,167,168,169,170,171,172,173,175},{14,25,38,76,91,101,113,124,134,144,153,164,166,167,168,169,170,171,172,173,177},{2,26,70,102,114,145,164,165,167,168,169,170,171,172,173},{3,27,77,84,103,125,135,154,164,165,166,168,169,170,171,172,173,178},{16,29,41,60,105,127,138,157,164,165,166,167,169,170,171,172,173},{7,18,53,62,80,116,159,164,165,166,167,168,170,171,172,173},{19,31,44,63,87,108,130,140,149,160,164,165,166,167,168,169,171,172,173,181},{8,21,55,65,73,95,109,118,141,150,161,164,165,166,167,168,169,170,172,173,182},{9,22,33,66,74,81,88,96,119,131,162,164,165,166,167,168,169,170,171,173},{34,56,67,89,97,110,120,132,151,164,165,166,167,168,169,170,171,172,183},{0,11,47,57,69,99,111,122,142,175,176,177,178,179,180,181,182,183,184},{1,12,36,48,58,75,90,112,123,143,152,164,174,176,177,178,179,180,181,182,183,184},{13,24,37,83,100,174,175,177,178,179,180,181,182,183,184},{14,25,38,76,91,101,113,124,134,144,153,165,174,175,176,178,179,180,181,182,183,184},{3,27,77,84,103,125,135,154,167,174,175,176,177,179,180,181,182,183,184},{5,30,42,51,61,78,93,106,128,139,147,174,175,176,177,178,180,181,182,183,184},{6,17,43,52,79,86,94,107,129,148,158,174,175,176,177,178,179,181,182,183,184},{19,31,44,63,87,108,130,140,149,160,170,174,175,176,177,178,179,180,182,183,184},{8,21,55,65,73,95,109,118,141,150,161,171,174,175,176,177,178,179,180,181,183,184},{34,56,67,89,97,110,120,132,151,173,174,175,176,177,178,179,180,181,182,184},{10,23,35,46,68,82,98,121,133,163,174,175,176,177,178,179,180,181,182,183}];
weights=[589,540,480,367,524,604,374,234,620,528,603,241,502,640,448,263,240,388,208,470,487,481,211,448,694,497,347,617,288,663,279,703,441,363,253,684,236,672,258,396,210,682,694,273,243,698,627,255,363,663,509,686,661,655,284,498,423,338,431,580,301,290,467,538,606,238,289,304,375,228,511,295,284,330,479,616,257,213,308,539,205,363,400,591,388,465,576,672,650,222,608,378,347,607,355,613,655,486,630,299,285,552,300,559,227,501,442,611,321,420,300,310,639,537,437,205,373,665,683,229,295,484,265,376,535,387,494,241,402,540,492,683,325,429,464,264,638,488,507,587,589,646,350,493,662,213,586,374,534,226,285,566,257,669,380,219,633,432,542,598,212,629,246,543,290,622,424,288,268,445,306,266,640,531,464,377,209,487,398,616,408,609,236,411,319];
